p edge 25 46
e 1 2
e 1 3
e 1 4
e 1 6
e 1 8
e 1 10
e 1 11
e 1 12
e 1 14
e 1 15
e 1 18
e 1 19
e 1 20
e 1 21
e 1 23
e 1 24
e 2 4
e 2 5
e 2 7
e 2 8
e 2 9
e 2 16
e 2 18
e 2 22
e 3 5
e 3 17
e 4 9
e 5 6
e 5 7
e 5 13
e 5 14
e 5 16
e 5 17
e 5 19
e 5 20
e 5 24
e 6 12
e 6 13
e 6 23
e 6 25
e 7 10
e 9 11
e 9 15
e 9 21
e 17 22
e 20 25
